c File: flat50_3_0.col
c
c SOURCE: Joseph Culberson (joe@cs.ualberta.ca)
c DESCRIPTION: Quasi-random coloring problem
c              generated with flatness = 0
c                             probability = 0.139
c                             known coloring = 3
c                             random seed = 1160
c              Creation Date:  Tue Jun  9 12:02:37 1998
c Maximum degree = 8 Minimum degree = 0
c p edge 50 115
c cnf created by edge2cnf
p cnf 150 545
-1 -2 0
-1 -3 0
-2 -3 0
1 2 3 0
-4 -5 0
-4 -6 0
-5 -6 0
4 5 6 0
-7 -8 0
-7 -9 0
-8 -9 0
7 8 9 0
-10 -11 0
-10 -12 0
-11 -12 0
10 11 12 0
-13 -14 0
-13 -15 0
-14 -15 0
13 14 15 0
-16 -17 0
-16 -18 0
-17 -18 0
16 17 18 0
-19 -20 0
-19 -21 0
-20 -21 0
19 20 21 0
-22 -23 0
-22 -24 0
-23 -24 0
22 23 24 0
-25 -26 0
-25 -27 0
-26 -27 0
25 26 27 0
-28 -29 0
-28 -30 0
-29 -30 0
28 29 30 0
-31 -32 0
-31 -33 0
-32 -33 0
31 32 33 0
-34 -35 0
-34 -36 0
-35 -36 0
34 35 36 0
-37 -38 0
-37 -39 0
-38 -39 0
37 38 39 0
-40 -41 0
-40 -42 0
-41 -42 0
40 41 42 0
-43 -44 0
-43 -45 0
-44 -45 0
43 44 45 0
-46 -47 0
-46 -48 0
-47 -48 0
46 47 48 0
-49 -50 0
-49 -51 0
-50 -51 0
49 50 51 0
-52 -53 0
-52 -54 0
-53 -54 0
52 53 54 0
-55 -56 0
-55 -57 0
-56 -57 0
55 56 57 0
-58 -59 0
-58 -60 0
-59 -60 0
58 59 60 0
-61 -62 0
-61 -63 0
-62 -63 0
61 62 63 0
-64 -65 0
-64 -66 0
-65 -66 0
64 65 66 0
-67 -68 0
-67 -69 0
-68 -69 0
67 68 69 0
-70 -71 0
-70 -72 0
-71 -72 0
70 71 72 0
-73 -74 0
-73 -75 0
-74 -75 0
73 74 75 0
-76 -77 0
-76 -78 0
-77 -78 0
76 77 78 0
-79 -80 0
-79 -81 0
-80 -81 0
79 80 81 0
-82 -83 0
-82 -84 0
-83 -84 0
82 83 84 0
-85 -86 0
-85 -87 0
-86 -87 0
85 86 87 0
-88 -89 0
-88 -90 0
-89 -90 0
88 89 90 0
-91 -92 0
-91 -93 0
-92 -93 0
91 92 93 0
-94 -95 0
-94 -96 0
-95 -96 0
94 95 96 0
-97 -98 0
-97 -99 0
-98 -99 0
97 98 99 0
-100 -101 0
-100 -102 0
-101 -102 0
100 101 102 0
-103 -104 0
-103 -105 0
-104 -105 0
103 104 105 0
-106 -107 0
-106 -108 0
-107 -108 0
106 107 108 0
-109 -110 0
-109 -111 0
-110 -111 0
109 110 111 0
-112 -113 0
-112 -114 0
-113 -114 0
112 113 114 0
-115 -116 0
-115 -117 0
-116 -117 0
115 116 117 0
-118 -119 0
-118 -120 0
-119 -120 0
118 119 120 0
-121 -122 0
-121 -123 0
-122 -123 0
121 122 123 0
-124 -125 0
-124 -126 0
-125 -126 0
124 125 126 0
-127 -128 0
-127 -129 0
-128 -129 0
127 128 129 0
-130 -131 0
-130 -132 0
-131 -132 0
130 131 132 0
-133 -134 0
-133 -135 0
-134 -135 0
133 134 135 0
-136 -137 0
-136 -138 0
-137 -138 0
136 137 138 0
-139 -140 0
-139 -141 0
-140 -141 0
139 140 141 0
-142 -143 0
-142 -144 0
-143 -144 0
142 143 144 0
-145 -146 0
-145 -147 0
-146 -147 0
145 146 147 0
-148 -149 0
-148 -150 0
-149 -150 0
148 149 150 0
-67 -1 0
-68 -2 0
-69 -3 0
-79 -1 0
-80 -2 0
-81 -3 0
-82 -1 0
-83 -2 0
-84 -3 0
-100 -1 0
-101 -2 0
-102 -3 0
-109 -1 0
-110 -2 0
-111 -3 0
-136 -1 0
-137 -2 0
-138 -3 0
-70 -4 0
-71 -5 0
-72 -6 0
-73 -4 0
-74 -5 0
-75 -6 0
-85 -4 0
-86 -5 0
-87 -6 0
-109 -4 0
-110 -5 0
-111 -6 0
-133 -4 0
-134 -5 0
-135 -6 0
-145 -4 0
-146 -5 0
-147 -6 0
-88 -7 0
-89 -8 0
-90 -9 0
-106 -7 0
-107 -8 0
-108 -9 0
-133 -7 0
-134 -8 0
-135 -9 0
-94 -10 0
-95 -11 0
-96 -12 0
-121 -10 0
-122 -11 0
-123 -12 0
-136 -10 0
-137 -11 0
-138 -12 0
-67 -13 0
-68 -14 0
-69 -15 0
-82 -13 0
-83 -14 0
-84 -15 0
-100 -13 0
-101 -14 0
-102 -15 0
-103 -13 0
-104 -14 0
-105 -15 0
-70 -16 0
-71 -17 0
-72 -18 0
-106 -16 0
-107 -17 0
-108 -18 0
-109 -16 0
-110 -17 0
-111 -18 0
-73 -19 0
-74 -20 0
-75 -21 0
-82 -19 0
-83 -20 0
-84 -21 0
-103 -19 0
-104 -20 0
-105 -21 0
-70 -22 0
-71 -23 0
-72 -24 0
-100 -22 0
-101 -23 0
-102 -24 0
-130 -22 0
-131 -23 0
-132 -24 0
-148 -22 0
-149 -23 0
-150 -24 0
-61 -25 0
-62 -26 0
-63 -27 0
-79 -25 0
-80 -26 0
-81 -27 0
-88 -25 0
-89 -26 0
-90 -27 0
-97 -25 0
-98 -26 0
-99 -27 0
-118 -25 0
-119 -26 0
-120 -27 0
-148 -25 0
-149 -26 0
-150 -27 0
-61 -28 0
-62 -29 0
-63 -30 0
-64 -28 0
-65 -29 0
-66 -30 0
-67 -28 0
-68 -29 0
-69 -30 0
-148 -28 0
-149 -29 0
-150 -30 0
-79 -31 0
-80 -32 0
-81 -33 0
-97 -31 0
-98 -32 0
-99 -33 0
-58 -34 0
-59 -35 0
-60 -36 0
-79 -34 0
-80 -35 0
-81 -36 0
-88 -34 0
-89 -35 0
-90 -36 0
-109 -34 0
-110 -35 0
-111 -36 0
-124 -34 0
-125 -35 0
-126 -36 0
-130 -34 0
-131 -35 0
-132 -36 0
-73 -37 0
-74 -38 0
-75 -39 0
-94 -37 0
-95 -38 0
-96 -39 0
-97 -37 0
-98 -38 0
-99 -39 0
-103 -37 0
-104 -38 0
-105 -39 0
-124 -37 0
-125 -38 0
-126 -39 0
-136 -37 0
-137 -38 0
-138 -39 0
-142 -37 0
-143 -38 0
-144 -39 0
-58 -40 0
-59 -41 0
-60 -42 0
-85 -40 0
-86 -41 0
-87 -42 0
-91 -40 0
-92 -41 0
-93 -42 0
-94 -40 0
-95 -41 0
-96 -42 0
-106 -40 0
-107 -41 0
-108 -42 0
-130 -40 0
-131 -41 0
-132 -42 0
-58 -43 0
-59 -44 0
-60 -45 0
-67 -43 0
-68 -44 0
-69 -45 0
-85 -43 0
-86 -44 0
-87 -45 0
-103 -43 0
-104 -44 0
-105 -45 0
-124 -43 0
-125 -44 0
-126 -45 0
-133 -43 0
-134 -44 0
-135 -45 0
-148 -43 0
-149 -44 0
-150 -45 0
-88 -46 0
-89 -47 0
-90 -48 0
-139 -46 0
-140 -47 0
-141 -48 0
-142 -46 0
-143 -47 0
-144 -48 0
-106 -49 0
-107 -50 0
-108 -51 0
-118 -49 0
-119 -50 0
-120 -51 0
-121 -49 0
-122 -50 0
-123 -51 0
-124 -49 0
-125 -50 0
-126 -51 0
-142 -52 0
-143 -53 0
-144 -54 0
-124 -55 0
-125 -56 0
-126 -57 0
-133 -55 0
-134 -56 0
-135 -57 0
-139 -55 0
-140 -56 0
-141 -57 0
-103 -58 0
-104 -59 0
-105 -60 0
-112 -58 0
-113 -59 0
-114 -60 0
-121 -61 0
-122 -62 0
-123 -63 0
-124 -61 0
-125 -62 0
-126 -63 0
-145 -61 0
-146 -62 0
-147 -63 0
-115 -64 0
-116 -65 0
-117 -66 0
-136 -64 0
-137 -65 0
-138 -66 0
-142 -64 0
-143 -65 0
-144 -66 0
-148 -67 0
-149 -68 0
-150 -69 0
-121 -70 0
-122 -71 0
-123 -72 0
-136 -70 0
-137 -71 0
-138 -72 0
-112 -73 0
-113 -74 0
-114 -75 0
-148 -73 0
-149 -74 0
-150 -75 0
-112 -79 0
-113 -80 0
-114 -81 0
-118 -79 0
-119 -80 0
-120 -81 0
-121 -79 0
-122 -80 0
-123 -81 0
-130 -79 0
-131 -80 0
-132 -81 0
-145 -82 0
-146 -83 0
-147 -84 0
-103 -85 0
-104 -86 0
-105 -87 0
-115 -85 0
-116 -86 0
-117 -87 0
-121 -85 0
-122 -86 0
-123 -87 0
-136 -85 0
-137 -86 0
-138 -87 0
-130 -88 0
-131 -89 0
-132 -90 0
-136 -88 0
-137 -89 0
-138 -90 0
-112 -94 0
-113 -95 0
-114 -96 0
-118 -94 0
-119 -95 0
-120 -96 0
-133 -94 0
-134 -95 0
-135 -96 0
-148 -94 0
-149 -95 0
-150 -96 0
-109 -97 0
-110 -98 0
-111 -99 0
-133 -97 0
-134 -98 0
-135 -99 0
-142 -97 0
-143 -98 0
-144 -99 0
-106 -100 0
-107 -101 0
-108 -102 0
-124 -100 0
-125 -101 0
-126 -102 0
-148 -100 0
-149 -101 0
-150 -102 0
